sat
(:added-eqs                       717
 :arith-eq-adapter                214
 :arith-bound-propagations-lp     104
 :arith-branch                    1
 :arith-conflicts                 431
 :arith-diseq                     336
 :arith-fixed-eqs                 119
 :arith-gcd-calls                 25
 :arith-grobner-calls             88
 :arith-grobner-conflicts         41
 :arith-horner-calls              25
 :arith-horner-conflicts          2
 :arith-horner-cross-nested-forms 4872
 :arith-lower                     694
 :arith-make-feasible             1000
 :arith-max-columns               258
 :arith-max-rows                  100
 :arith-nla-add-bounds            27
 :arith-nla-lemmas                232
 :arith-nla-propagate-bounds      125
 :arith-nla-propagate-eq          935
 :arith-nra-calls                 18
 :arith-offset-eqs                41
 :arith-patches                   25
 :arith-patches-success           23
 :arith-upper                     1047
 :binary-propagations             338
 :conflicts                       117
 :decisions                       1096
 :del-clause                      637
 :final-checks                    198
 :max-memory                      104.89
 :memory                          58.23
 :minimized-lits                  33
 :mk-bool-var                     1432
 :mk-clause                       920
 :mk-clause-binary                644
 :nlsat-conflicts                 1391
 :nlsat-decisions                 36
 :nlsat-propagations              21183
 :nlsat-stages                    7738
 :num-allocs                      531401104
 :num-checks                      1
 :propagations                    1281
 :restarts                        1
 :rlimit-count                    956364
 :sat-mk-clause-2ary              141189
 :sat-mk-clause-nary              188899
 :sat-mk-var                      95389
 :sls-arith-moves                 4914
 :sls-ddfw-flips                  613.00
 :sls-ddfw-shifts                 20.00
 :time                            2.45
 :total-time                      2.73)
